#=======================================================
# FHI-aims file: ./structures/clean_bdd.in
# Created using the Atomic Simulation Environment (ASE)
# Sun Oct 28 00:15:13 2018
#=======================================================
lattice_vector 2.5259399999999999 0.0000000000000000 0.0000000000000000 
lattice_vector 0.0000000000000000 3.5722179000000001 0.0000000000000000 
lattice_vector 0.0000000000000000 0.0000000000000000 18.1037600000000012 
atom 0.0000025000000000 2.6966588599999999 2.5363868300000001 C
atom 1.2629724800000000 0.9107943900000000 3.7889121499999998 C
atom 1.2629724800000000 1.8102866399999999 2.5363868300000001 C
atom 0.0000025000000000 0.0239332100000000 3.7889121499999998 C
atom 0.0000025000000000 2.6966588300000001 5.0414374500000001 C
atom 1.2629724899999999 0.8791267600000000 6.3338825600000002 C
atom 1.2629724800000000 1.8102866600000000 5.0414374500000001 C
atom 0.0000024900000000 0.0556008400000000 6.3338825600000002 C
atom 0.0000025000000000 2.5922254800000002 7.3891377299999998 C
atom 1.2629724800000000 1.9147200200000001 7.3891377299999998 C
