#=======================================================
# FHI-aims file: ./structures/phase6.in
# Created using the Atomic Simulation Environment (ASE)
# Sun Oct 28 00:10:37 2018
#=======================================================
lattice_vector 2.5259399999999999 0.0000000000000000 0.0000000000000000 
lattice_vector 0.0000000000000000 3.5722179000000001 0.0000000000000000 
lattice_vector 0.0000000000000000 0.0000000000000000 18.1037600000000012 
atom -0.0747287300000000 2.8611313599999999 2.5392007599999999 C
atom 1.1880176300000000 1.0761077100000001 3.7945332299999999 C
atom 1.1884570999999999 1.9707219700000000 2.5391700300000002 C
atom -0.0750231300000000 0.1834510300000000 3.7945205000000000 C
atom -0.0748780100000000 2.8610668800000001 5.0499263000000001 C
atom 1.1915354400000000 1.0688042499999999 6.3024045099999997 C
atom 1.1883070099999999 1.9706288100000000 5.0499795199999999 C
atom -0.0789541200000000 0.1907565600000000 6.3023757600000003 C
atom -0.0367103000000000 2.8689467299999998 7.5389223300000001 C
atom 1.1493084499999999 1.9628830700000000 7.5390047700000000 C
atom 0.2091725200000000 -0.0427264500000000 8.7879614799999999 O
atom 0.9026247200000000 1.3023019300000001 8.7881170500000003 O
