#=======================================================
# FHI-aims file: ./structures/phase3.in
# Created using the Atomic Simulation Environment (ASE)
# Sun Oct 28 00:08:51 2018
#=======================================================
lattice_vector 2.5259399999999999 0.0000000000000000 0.0000000000000000 
lattice_vector 0.0000000000000000 3.5722179000000001 0.0000000000000000 
lattice_vector 0.0000000000000000 0.0000000000000000 18.1037600000000012 
atom 0.0552049200000000 2.7805191599999999 2.5466230099999998 C
atom 1.3177418900000000 0.9945643900000000 3.8004102600000000 C
atom 1.3171083299999999 1.8898912999999999 2.5464829700000000 C
atom 0.0549834800000000 0.1035551500000000 3.8007226200000002 C
atom 0.0552373500000000 2.7806169100000000 5.0547609700000002 C
atom 1.3139762800000001 0.9616345300000000 6.3182485799999997 C
atom 1.3171136500000000 1.8899637800000000 5.0545565200000002 C
atom 0.0584214500000000 0.1367375400000000 6.3184161300000001 C
atom 0.0574845700000000 2.7047124899999999 7.4136945200000000 C
atom 1.3149769000000000 1.9657954600000001 7.4136485900000002 C
atom 0.6861541900000000 2.3350849899999999 8.6568566499999999 O
