#=======================================================
# FHI-aims file: /media/sf_Work/Lehre/Warwick/4th_year_CompChem_CH413/CH413.git/DFT_MM_MAURER/structures/phase7.in
# Created using the Atomic Simulation Environment (ASE)
# Sun Oct 28 00:11:12 2018
#=======================================================
lattice_vector 5.0518799999999997 0.0000000000000000 0.0000000000000000 
lattice_vector 0.0000000000000000 3.5722179000000001 0.0000000000000000 
lattice_vector 0.0000000000000000 0.0000000000000000 18.1037600000000012 
atom -0.0853307800000000 2.7098631200000001 2.5717671400000000 C
atom 1.1766308100000000 0.9234017200000000 3.7945474699999999 C
atom 1.1583505700000001 1.8176309799999999 2.5455470899999999 C
atom -0.0971312000000000 0.0448027700000000 3.7946471900000001 C
atom -0.0854306600000000 2.7098597099999999 5.0173956100000003 C
atom 1.0622153299999999 0.9909915900000000 6.3397027300000000 C
atom 1.1582654699999999 1.8177836500000000 5.0433379100000000 C
atom -0.0424393800000000 -0.0604553700000000 6.2981643900000002 C
atom 0.2893402600000000 2.2312538700000002 7.3771801300000002 C
atom 1.3612016400000000 2.6288122800000000 8.4375130899999995 C
atom 1.1769071400000000 2.6651141200000001 9.6183081599999998 O
atom 2.4192975699999999 2.7188066700000002 2.4982520699999999 C
atom 3.6835504299999999 0.9340691600000000 3.7945670599999999 C
atom 3.7020627799999999 1.8223531500000001 2.5361185300000000 C
atom 2.4286927399999998 0.0327264600000000 3.7947174700000001 C
atom 2.4192457900000002 2.7189144700000001 5.0909312000000000 C
atom 3.7103815800000000 0.9093587500000000 6.2865402699999997 C
atom 3.7019542200000002 1.8223774100000001 5.0529713100000002 C
atom 2.4425035400000001 0.1034535700000000 6.3804261499999999 C
atom 2.7681182000000000 3.0125355699999998 7.7519053700000002 C
atom 3.8134079100000000 1.6725909100000000 7.5952053700000004 C
atom 3.4386449899999998 0.5606200800000000 8.4953395500000006 O
