#=======================================================
# FHI-aims file: /media/sf_Work/Lehre/Warwick/4th_year_CompChem_CH413/CH413.git/DFT_MM_MAURER/structures/phase1.in
# Created using the Atomic Simulation Environment (ASE)
# Sun Oct 28 00:05:24 2018
#=======================================================
lattice_vector 2.5259399999999999 0.0000000000000000 0.0000000000000000 
lattice_vector 0.0000000000000000 3.5722179000000001 0.0000000000000000 
lattice_vector 0.0000000000000000 0.0000000000000000 18.1037600000000012 
atom -0.0279505700000000 2.8230719700000000 2.5328340400000000 C
atom 1.2349823600000001 1.0334152800000000 3.7960044900000001 C
atom 1.2351137100000000 1.9321477499999999 2.5429189800000001 C
atom -0.0280685600000000 0.1428879100000000 3.7959838800000001 C
atom -0.0279900400000000 2.8231305999999998 5.0589124600000002 C
atom 1.2347718800000000 1.0327131300000001 6.3474149600000001 C
atom 1.2350455000000000 1.9321808599999999 5.0492150300000000 C
atom -0.0278489200000000 0.1447922900000000 6.2997247099999996 C
atom -0.0282370300000000 2.8156044200000001 7.7132984599999999 C
atom 1.2347447300000001 1.9819473800000000 7.5037630399999999 C
atom -0.0281764600000000 0.1515805400000000 8.6774926899999993 O
