#=======================================================
# FHI-aims file: /media/sf_Work/Lehre/Warwick/4th_year_CompChem_CH413/CH413.git/DFT_MM_MAURER/structures/phase2.in
# Created using the Atomic Simulation Environment (ASE)
# Sun Oct 28 00:07:45 2018
#=======================================================
lattice_vector 2.5259399999999999 0.0000000000000000 0.0000000000000000 
lattice_vector 0.0000000000000000 3.5722179000000001 0.0000000000000000 
lattice_vector 0.0000000000000000 0.0000000000000000 18.1037600000000012 
atom -0.0175545600000000 2.8074499600000000 2.5561011699999998 C
atom 1.2454198700000001 1.0232793000000000 3.8118635400000001 C
atom 1.2453924199999999 1.9195285000000000 2.5562401700000001 C
atom -0.0175705400000000 0.1313859000000000 3.8118372100000002 C
atom -0.0175505700000000 2.8074980699999998 5.0676005899999996 C
atom 1.2454402000000000 1.0117077800000001 6.3144257599999998 C
atom 1.2454301299999999 1.9196383800000001 5.0674253000000000 C
atom -0.0175633800000000 0.1430827200000000 6.3146041500000001 C
atom -0.0174346500000000 2.8327304999999998 7.5633020100000001 C
atom 1.2453359500000001 1.8945891100000001 7.5635603800000002 C
atom -0.0171701000000000 -0.2178212500000000 8.7938202899999993 O
atom 1.2446727799999999 1.3731994500000000 8.7940674100000003 O
