#=======================================================
# FHI-aims file: /media/sf_Work/Lehre/Warwick/4th_year_CompChem_CH413/CH413.git/DFT_MM_MAURER/structures/phase5.in
# Created using the Atomic Simulation Environment (ASE)
# Sun Oct 28 00:09:28 2018
#=======================================================
lattice_vector 2.5259399999999999 0.0000000000000000 0.0000000000000000 
lattice_vector 0.0000000000000000 3.5722179000000001 0.0000000000000000 
lattice_vector 0.0000000000000000 0.0000000000000000 18.1037600000000012 
atom -0.0061690900000000 2.7022949700000001 2.5343170300000000 C
atom 1.2575823800000001 0.9184135400000000 3.7901695399999999 C
atom 1.2583072099999999 1.8150944099999999 2.5342749800000002 C
atom -0.0054209000000000 0.0268294500000000 3.7902489400000001 C
atom -0.0061409800000000 2.7023196800000000 5.0460731399999998 C
atom 1.2539898100000000 0.9277131500000000 6.2940132200000001 C
atom 1.2583449700000000 1.8150240900000001 5.0460261800000001 C
atom -0.0018403500000000 0.0176134700000000 6.2948627500000001 C
atom 0.1400669200000000 2.8314852500000001 7.6279422300000004 C
atom 1.1109672100000001 1.6841753399999999 7.6300792299999998 C
atom 0.6340806500000000 0.4796326700000000 8.4859689599999992 O
